p cnf 18 78
1 2 3 4 5 6 0
7 8 9 10 11 12 0
13 14 15 16 17 18 0
-1 -3 0
-1 -9 0
-1 -15 0
-7 -3 0
-7 -9 0
-7 -15 0
-13 -3 0
-13 -9 0
-13 -15 0
-2 -5 0
-2 -11 0
-2 -17 0
-8 -5 0
-8 -11 0
-8 -17 0
-14 -5 0
-14 -11 0
-14 -17 0
-1 -2 0
-1 -4 0
-1 -5 0
-1 -6 0
-2 -3 0
-2 -4 0
-2 -6 0
-3 -4 0
-3 -5 0
-3 -6 0
-4 -5 0
-4 -6 0
-5 -6 0
-7 -8 0
-7 -10 0
-7 -11 0
-7 -12 0
-8 -9 0
-8 -10 0
-8 -12 0
-9 -10 0
-9 -11 0
-9 -12 0
-10 -11 0
-10 -12 0
-11 -12 0
-13 -14 0
-13 -16 0
-13 -17 0
-13 -18 0
-14 -15 0
-14 -16 0
-14 -18 0
-15 -16 0
-15 -17 0
-15 -18 0
-16 -17 0
-16 -18 0
-17 -18 0
-1 -7 0
-1 -13 0
-7 -13 0
-2 -8 0
-2 -14 0
-8 -14 0
-3 -9 0
-3 -15 0
-9 -15 0
-4 -10 0
-4 -16 0
-10 -16 0
-5 -11 0
-5 -17 0
-11 -17 0
-6 -12 0
-6 -18 0
-12 -18 0
